Version identifier: 22.1.0.0 | 2022-03-09 | 1a383f8ce
CPXPARAM_Threads                                 1
CPXPARAM_MIP_Strategy_VariableSelect             3
CPXPARAM_TimeLimit                               599.99767657999996
Found incumbent of value 0.000000 after 0.00 sec. (0.31 ticks)

Root node processing (before b&c):
  Real time             =    0.00 sec. (0.35 ticks)
Sequential b&c:
  Real time             =    0.00 sec. (0.00 ticks)
                          ------------
Total (root+branch&cut) =    0.00 sec. (0.35 ticks)
Version identifier: 22.1.0.0 | 2022-03-09 | 1a383f8ce
CPXPARAM_Threads                                 1
CPXPARAM_MIP_Strategy_VariableSelect             3
CPXPARAM_TimeLimit                               599.98307020100003
Found incumbent of value 0.000000 after 0.00 sec. (0.37 ticks)

Root node processing (before b&c):
  Real time             =    0.00 sec. (0.41 ticks)
Sequential b&c:
  Real time             =    0.00 sec. (0.00 ticks)
                          ------------
Total (root+branch&cut) =    0.00 sec. (0.41 ticks)
Version identifier: 22.1.0.0 | 2022-03-09 | 1a383f8ce
CPXPARAM_Threads                                 1
CPXPARAM_MIP_Strategy_VariableSelect             3
CPXPARAM_TimeLimit                               599.96929929600003
Tried aggregator 1 time.
MIP Presolve eliminated 19 rows and 627 columns.
MIP Presolve modified 1 coefficients.
Reduced MIP has 1456 rows, 1881 columns, and 17163 nonzeros.
Reduced MIP has 1881 binaries, 0 generals, 0 SOSs, and 0 indicators.
Presolve time = 0.01 sec. (9.80 ticks)
Found incumbent of value 0.000000 after 0.04 sec. (27.87 ticks)

Root node processing (before b&c):
  Real time             =    0.04 sec. (27.96 ticks)
Sequential b&c:
  Real time             =    0.00 sec. (0.00 ticks)
                          ------------
Total (root+branch&cut) =    0.04 sec. (27.96 ticks)
Version identifier: 22.1.0.0 | 2022-03-09 | 1a383f8ce
CPXPARAM_Threads                                 1
CPXPARAM_MIP_Strategy_VariableSelect             3
CPXPARAM_TimeLimit                               599.91677223099998
Tried aggregator 1 time.
MIP Presolve eliminated 19 rows and 639 columns.
MIP Presolve modified 1 coefficients.
Reduced MIP has 1484 rows, 1917 columns, and 17495 nonzeros.
Reduced MIP has 1917 binaries, 0 generals, 0 SOSs, and 0 indicators.
Presolve time = 0.01 sec. (9.98 ticks)
Probing time = 0.00 sec. (2.56 ticks)
Tried aggregator 1 time.
Detecting symmetries...
Reduced MIP has 1484 rows, 1917 columns, and 17495 nonzeros.
Reduced MIP has 1917 binaries, 0 generals, 0 SOSs, and 0 indicators.
Presolve time = 0.01 sec. (11.20 ticks)
Probing time = 0.00 sec. (2.56 ticks)
Clique table members: 1054.
MIP emphasis: balance optimality and feasibility.
MIP search method: dynamic search.
Parallel mode: none, using 1 thread.
Root relaxation solution time = 0.02 sec. (16.35 ticks)

        Nodes                                         Cuts/
   Node  Left     Objective  IInf  Best Integer    Best Bound    ItCnt     Gap

      0     0        0.0000   150                      0.0000      428         
*     0+    0                            0.0000        0.0000             0.00%
      0     0        cutoff              0.0000        0.0000      428    0.00%
Elapsed time = 0.12 sec. (96.25 ticks, tree = 0.01 MB, solutions = 1)

Root node processing (before b&c):
  Real time             =    0.12 sec. (96.33 ticks)
Sequential b&c:
  Real time             =    0.00 sec. (0.00 ticks)
                          ------------
Total (root+branch&cut) =    0.12 sec. (96.33 ticks)
Version identifier: 22.1.0.0 | 2022-03-09 | 1a383f8ce
CPXPARAM_Threads                                 1
CPXPARAM_MIP_Strategy_VariableSelect             3
CPXPARAM_TimeLimit                               599.784789069
Tried aggregator 1 time.
MIP Presolve eliminated 19 rows and 645 columns.
MIP Presolve modified 1 coefficients.
Reduced MIP has 1498 rows, 1935 columns, and 17661 nonzeros.
Reduced MIP has 1935 binaries, 0 generals, 0 SOSs, and 0 indicators.
Presolve time = 0.01 sec. (10.07 ticks)
Probing time = 0.00 sec. (2.57 ticks)
Tried aggregator 1 time.
Detecting symmetries...
Reduced MIP has 1498 rows, 1935 columns, and 17661 nonzeros.
Reduced MIP has 1935 binaries, 0 generals, 0 SOSs, and 0 indicators.
Presolve time = 0.01 sec. (11.31 ticks)
Probing time = 0.00 sec. (2.57 ticks)
Clique table members: 1064.
MIP emphasis: balance optimality and feasibility.
MIP search method: dynamic search.
Parallel mode: none, using 1 thread.
Root relaxation solution time = 0.02 sec. (15.63 ticks)

        Nodes                                         Cuts/
   Node  Left     Objective  IInf  Best Integer    Best Bound    ItCnt     Gap

      0     0        0.0000   120                      0.0000      454         
*     0+    0                            0.0000        0.0000             0.00%
      0     0        cutoff              0.0000        0.0000      454    0.00%
Elapsed time = 0.19 sec. (157.66 ticks, tree = 0.01 MB, solutions = 1)

Root node processing (before b&c):
  Real time             =    0.19 sec. (157.74 ticks)
Sequential b&c:
  Real time             =    0.00 sec. (0.00 ticks)
                          ------------
Total (root+branch&cut) =    0.19 sec. (157.74 ticks)
Version identifier: 22.1.0.0 | 2022-03-09 | 1a383f8ce
CPXPARAM_Threads                                 1
CPXPARAM_MIP_Strategy_VariableSelect             3
CPXPARAM_TimeLimit                               599.58096249699997
Tried aggregator 1 time.
MIP Presolve eliminated 19 rows and 648 columns.
MIP Presolve modified 1 coefficients.
Reduced MIP has 1505 rows, 1944 columns, and 17744 nonzeros.
Reduced MIP has 1944 binaries, 0 generals, 0 SOSs, and 0 indicators.
Presolve time = 0.01 sec. (10.12 ticks)
Probing time = 0.00 sec. (2.57 ticks)
Tried aggregator 1 time.
Detecting symmetries...
Reduced MIP has 1505 rows, 1944 columns, and 17744 nonzeros.
Reduced MIP has 1944 binaries, 0 generals, 0 SOSs, and 0 indicators.
Presolve time = 0.01 sec. (11.36 ticks)
Probing time = 0.00 sec. (2.57 ticks)
Clique table members: 1069.
MIP emphasis: balance optimality and feasibility.
MIP search method: dynamic search.
Parallel mode: none, using 1 thread.
Root relaxation solution time = 0.02 sec. (19.29 ticks)

        Nodes                                         Cuts/
   Node  Left     Objective  IInf  Best Integer    Best Bound    ItCnt     Gap

      0     0        0.0000   201                      0.0000      479         
*     0+    0                            0.0000        0.0000             0.00%
      0     0        cutoff              0.0000        0.0000      479    0.00%
Elapsed time = 0.19 sec. (154.72 ticks, tree = 0.01 MB, solutions = 1)

Root node processing (before b&c):
  Real time             =    0.19 sec. (154.80 ticks)
Sequential b&c:
  Real time             =    0.00 sec. (0.00 ticks)
                          ------------
Total (root+branch&cut) =    0.19 sec. (154.80 ticks)
Primal:	216
Dual:	216
Status:	Optimal
Time:	0.624136
Sequence:
	6
	4
	2
	11
	4
	2
	5
	9
	9
	4
	9
	9
	9
	3
	9
	5
	9
	9
	1
	4
	11
	9
	9
	0
	9
	4
	3
	4
	9
	4
	9
	4
	4
	9
	5
	9
	11
	9
	9
	4
	9
	9
	9
	3
	9
	4
	5
	9
	4
	11
	9
	9
	9
	4
	9
	3
	0
	4
	4
	9
	4
	9
	9
	9
	3
	9
	9
	4
	4
	9
	11
	9
	1
	9
	9
	9
	9
	11
	9
	5
	4
	9
	9
	9
	4
	11
	4
	4
	0
	1
	4
	3
	4
	0
	4
	5
	9
	11
	0
	9
	5
	4
	0
	11
	4
	9
	5
	0
	6
	4
	11
	4
	0
	5
	4
	0
	3
	9
	0
	1
	4
	0
	4
	1
	0
	11
	9
	0
	5
	9
	4
	0
	11
	4
	0
	4
	1
	0
	11
	4
	5
	0
	5
	4
	0
	4
	3
	0
	4
	4
	0
	4
	3
	0
	1
	4
	0
	5
	4
	0
	3
	9
	0
	5
	9
	1
	0
	9
	3
	0
	1
	4
	0
	1
	4
	0
	4
	11
	4
	5
	0
	5
	9
	0
	9
	5
	4
	3
	9
	0
	4
	1
	4
	2
	9
	3
	4
	0
	5
	4
	0
	4
	1
	4
	11
	0
	5
	4
	0
	4
	11
	0
	4
	9
	1
	2
